solution status: optimal solution found
objective value:                                   11
$_121_y                                            16 	(obj:0)
$_121_z                                            19 	(obj:0)
$_135_y                                            14 	(obj:0)
$_135_z                                            14 	(obj:0)
$_19__2_y                                           5 	(obj:0)
$_19__2_z                                          25 	(obj:0)
$_22__2_y                                          17 	(obj:0)
$_22__2_z                                          21 	(obj:0)
$_118_y                                            16 	(obj:0)
$_118_z                                            20 	(obj:0)
$_125_y                                            13 	(obj:0)
$_125_z                                            15 	(obj:0)
$_65_y                                             14 	(obj:0)
$_65_z                                             13 	(obj:0)
$_154_y                                            18 	(obj:0)
$_154_z                                            19 	(obj:0)
$_23__2_y                                          17 	(obj:0)
$_23__2_z                                          16 	(obj:0)
$_128_y                                            14 	(obj:0)
$_128_z                                            16 	(obj:0)
$_74_y                                             13 	(obj:0)
$_74_z                                             14 	(obj:0)
$_43_y                                             19 	(obj:0)
$_43_z                                             15 	(obj:0)
$_80_y                                             13 	(obj:0)
$_80_z                                             13 	(obj:0)
$_132_y                                            13 	(obj:0)
$_132_z                                            12 	(obj:0)
$_18__2_y                                          21 	(obj:0)
$_18__2_z                                          18 	(obj:0)
$_25__2_y                                          17 	(obj:0)
$_25__2_z                                          14 	(obj:0)
$_21__2_y                                          16 	(obj:0)
$_21__2_z                                          21 	(obj:0)
$_195_y                                            16 	(obj:0)
$_195_z                                            18 	(obj:0)
$_81_y                                             18 	(obj:0)
$_81_z                                             17 	(obj:0)
$_24__2_y                                          19 	(obj:0)
$_24__2_z                                          19 	(obj:0)
$_236_y                                            13 	(obj:0)
$_236_z                                            16 	(obj:0)
$_111_y                                            20 	(obj:0)
$_111_z                                            16 	(obj:0)
$_20__2_y                                          15 	(obj:0)
$_20__2_z                                           3 	(obj:0)
$_75_y                                             19 	(obj:0)
$_75_z                                             16 	(obj:0)
$_203_y                                            15 	(obj:0)
$_203_z                                            18 	(obj:0)
$_162_y                                            18 	(obj:0)
$_162_z                                            20 	(obj:0)
$_244_y                                            14 	(obj:0)
$_244_z                                            15 	(obj:0)
$_114_y                                            18 	(obj:0)
$_114_z                                            16 	(obj:0)
x72                                                 2 	(obj:1)
x94                                                 1 	(obj:1)
x95                                                 1 	(obj:1)
x111                                                1 	(obj:1)
x112                                                2 	(obj:1)
x114                                                1 	(obj:1)
x116                                                2 	(obj:1)
x122                                                1 	(obj:1)
